p cnf 75 600
1 -75 -69 0
1 -75 -56 0
1 -75 -52 0
1 -75 -35 0
1 -75 -16 0
1 -75 27 0
1 -75 45 0
1 -75 51 0
1 -74 -47 0
1 -74 -26 0
1 -74 -20 0
1 -74 -17 0
1 -74 35 0
1 -74 45 0
1 -74 68 0
1 -74 70 0
1 -73 -55 0
1 -73 -25 0
1 -73 -10 0
1 -73 9 0
1 -73 21 0
1 -73 47 0
1 -73 48 0
1 -73 58 0
1 -72 -54 0
1 -72 -22 0
1 -72 2 0
1 -72 56 0
1 -72 59 0
1 -72 61 0
1 -72 69 0
1 -72 71 0
1 -71 -63 0
1 -71 -18 0
1 -71 -11 0
1 -71 6 0
1 -71 21 0
1 -71 23 0
1 -71 42 0
1 -71 49 0
1 -70 -57 0
1 -70 -44 0
1 -70 -30 0
1 -70 -22 0
1 -70 45 0
1 -70 47 0
1 -70 66 0
1 -70 75 0
1 -69 -43 0
1 -69 -25 0
1 -69 -19 0
1 -69 2 0
1 -69 17 0
1 -69 43 0
1 -69 60 0
1 -68 -67 0
1 -68 -52 0
1 -68 -25 0
1 -68 -20 0
1 -68 -15 0
1 -68 -8 0
1 -68 33 0
1 -68 69 0
1 -67 -16 0
1 -67 -11 0
1 -67 37 0
1 -67 41 0
1 -67 43 0
1 -67 60 0
1 -67 63 0
1 -66 -55 0
1 -66 -40 0
1 -66 -39 0
1 -66 -26 0
1 -66 -24 0
1 -66 -18 0
1 -66 -10 0
1 -66 1 0
1 -65 -54 0
1 -65 -43 0
1 -65 -22 0
1 -65 -17 0
1 -65 6 0
1 -65 31 0
1 -65 50 0
1 -65 67 0
1 -64 -13 0
1 -64 -12 0
1 -64 -6 0
1 -64 -2 0
1 -64 9 0
1 -64 25 0
1 -64 48 0
1 -64 60 0
1 -63 -62 0
1 -63 -53 0
1 -63 3 0
1 -63 8 0
1 -63 10 0
1 -63 23 0
1 -63 47 0
1 -62 -40 0
1 -62 -2 0
1 -62 13 0
1 -62 29 0
1 -62 32 0
1 -62 66 0
1 -62 70 0
1 -61 -47 0
1 -61 -39 0
1 -61 -37 0
1 -61 -32 0
1 -61 1 0
1 -61 7 0
1 -61 25 0
1 -61 68 0
1 -60 -58 0
1 -60 -31 0
1 -60 -26 0
1 -60 28 0
1 -60 29 0
1 -60 37 0
1 -60 44 0
1 -60 50 0
1 -59 -55 0
1 -59 -32 0
1 -59 -30 0
1 -59 14 0
1 -59 40 0
1 -59 46 0
1 -59 50 0
1 -59 66 0
1 -58 -23 0
1 -58 -18 0
1 -58 -1 0
1 -58 5 0
1 -58 16 0
1 -58 27 0
1 -58 45 0
1 -57 -32 0
1 -57 -22 0
1 -57 -8 0
1 -57 4 0
1 -57 13 0
1 -57 15 0
1 -57 64 0
1 -56 -37 0
1 -56 8 0
1 -56 22 0
1 -56 28 0
1 -56 30 0
1 -56 54 0
1 -56 55 0
1 -55 -48 0
1 -55 -41 0
1 -55 19 0
1 -55 46 0
1 -55 47 0
1 -54 -51 0
1 -54 -31 0
1 -54 -23 0
1 -54 -9 0
1 -54 5 0
1 -54 67 0
1 -53 -34 0
1 -53 -33 0
1 -53 -20 0
1 -53 -13 0
1 -53 28 0
1 -53 44 0
1 -53 69 0
1 -52 -47 0
1 -52 -35 0
1 -52 -5 0
1 -52 10 0
1 -52 23 0
1 -52 73 0
1 -51 -24 0
1 -51 -15 0
1 -51 12 0
1 -51 16 0
1 -51 20 0
1 -51 50 0
1 -51 62 0
1 -50 -47 0
1 -50 -35 0
1 -50 -32 0
1 -50 -3 0
1 -50 41 0
1 -50 44 0
1 -50 49 0
1 -50 66 0
1 -49 -46 0
1 -49 -19 0
1 -49 -14 0
1 -49 6 0
1 -49 31 0
1 -49 39 0
1 -49 48 0
1 -49 52 0
1 -48 -32 0
1 -48 1 0
1 -48 7 0
1 -48 21 0
1 -48 36 0
1 -48 57 0
1 -48 67 0
1 -47 -37 0
1 -47 -34 0
1 -47 -10 0
1 -47 6 0
1 -46 -38 0
1 -46 -33 0
1 -46 -28 0
1 -46 5 0
1 -46 29 0
1 -46 36 0
1 -46 73 0
1 -45 -34 0
1 -45 -20 0
1 -45 6 0
1 -45 25 0
1 -45 29 0
1 -45 35 0
1 -45 38 0
1 -45 44 0
1 -44 -20 0
1 -44 -8 0
1 -44 -1 0
1 -44 3 0
1 -44 18 0
1 -44 21 0
1 -44 63 0
1 -43 -34 0
1 -43 -23 0
1 -43 -15 0
1 -43 49 0
1 -43 68 0
1 -43 75 0
1 -42 -19 0
1 -42 -10 0
1 -42 24 0
1 -42 40 0
1 -42 43 0
1 -42 49 0
1 -42 59 0
1 -42 66 0
1 -41 -6 0
1 -41 -4 0
1 -41 -3 0
1 -41 4 0
1 -41 12 0
1 -41 33 0
1 -41 39 0
1 -40 -31 0
1 -40 -28 0
1 -40 -20 0
1 -40 -15 0
1 -40 18 0
1 -40 41 0
1 -39 -15 0
1 -39 -9 0
1 -39 13 0
1 -39 20 0
1 -39 28 0
1 -39 53 0
1 -38 -23 0
1 -38 -21 0
1 -38 14 0
1 -38 40 0
1 -38 42 0
1 -38 43 0
1 -38 65 0
1 -37 -29 0
1 -37 -25 0
1 -37 -5 0
1 -37 7 0
1 -37 71 0
1 -36 -29 0
1 -36 -14 0
1 -36 -11 0
1 -36 1 0
1 -36 3 0
1 -36 51 0
1 -36 58 0
1 -36 71 0
1 -35 -14 0
1 -35 22 0
1 -35 30 0
1 -35 65 0
1 -35 70 0
1 -34 -5 0
1 -34 42 0
1 -34 51 0
1 -34 73 0
1 -33 6 0
1 -33 16 0
1 -33 21 0
1 -33 55 0
1 -33 65 0
1 -33 68 0
1 -32 1 0
1 -32 50 0
1 -32 58 0
1 -31 -6 0
1 -31 20 0
1 -31 55 0
1 -31 59 0
1 -31 73 0
1 -30 -20 0
1 -30 -19 0
1 -30 -11 0
1 -30 53 0
1 -30 54 0
1 -30 59 0
1 -29 -12 0
1 -29 -4 0
1 -29 -3 0
1 -29 7 0
1 -29 59 0
1 -29 66 0
1 -28 -21 0
1 -28 -1 0
1 -28 55 0
1 -28 58 0
1 -28 64 0
1 -28 72 0
1 -27 5 0
1 -27 18 0
1 -27 21 0
1 -27 32 0
1 -27 39 0
1 -27 43 0
1 -27 54 0
1 -27 67 0
1 -26 5 0
1 -26 22 0
1 -26 36 0
1 -26 53 0
1 -26 56 0
1 -25 -7 0
1 -25 9 0
1 -25 44 0
1 -25 61 0
1 -24 -23 0
1 -24 15 0
1 -24 51 0
1 -24 52 0
1 -24 58 0
1 -24 65 0
1 -23 -1 0
1 -23 17 0
1 -23 65 0
1 -22 -18 0
1 -22 2 0
1 -22 60 0
1 -22 75 0
1 -21 14 0
1 -21 25 0
1 -21 26 0
1 -21 53 0
1 -21 59 0
1 -21 60 0
1 -20 33 0
1 -19 20 0
1 -19 31 0
1 -19 56 0
1 -19 59 0
1 -18 3 0
1 -18 34 0
1 -18 62 0
1 -18 68 0
1 -17 25 0
1 -17 28 0
1 -17 45 0
1 -17 46 0
1 -17 73 0
1 -17 74 0
1 -16 -3 0
1 -16 10 0
1 -16 11 0
1 -16 48 0
1 -16 63 0
1 -16 75 0
1 -15 -7 0
1 -15 30 0
1 -15 50 0
1 -14 4 0
1 -14 41 0
1 -14 45 0
1 -14 62 0
1 -14 63 0
1 -13 5 0
1 -13 20 0
1 -13 22 0
1 -13 48 0
1 -13 57 0
1 -13 70 0
1 -12 -6 0
1 -12 19 0
1 -12 24 0
1 -12 35 0
1 -12 61 0
1 -12 63 0
1 -11 4 0
1 -11 55 0
1 -11 64 0
1 -11 75 0
1 -10 5 0
1 -10 13 0
1 -10 26 0
1 -10 42 0
1 -9 14 0
1 -9 22 0
1 -9 36 0
1 -9 58 0
1 -9 64 0
1 -9 75 0
1 -8 -5 0
1 -8 6 0
1 -8 13 0
1 -8 48 0
1 -8 66 0
1 -7 -4 0
1 -7 34 0
1 -7 41 0
1 -7 54 0
1 -7 72 0
1 -7 74 0
1 -6 11 0
1 -6 52 0
1 -6 61 0
1 -6 69 0
1 -5 -2 0
1 -5 10 0
1 -5 39 0
1 -5 71 0
1 -4 9 0
1 -4 30 0
1 -4 33 0
1 -4 38 0
1 -4 39 0
1 -3 39 0
1 -3 50 0
1 -3 52 0
1 -3 61 0
1 -2 15 0
1 -2 24 0
1 -2 37 0
1 -2 38 0
1 -2 61 0
1 -1 12 0
1 -1 22 0
1 -1 60 0
1 -1 72 0
1 1 71 0
1 1 74 0
1 1 75 0
1 2 17 0
1 2 19 0
1 2 30 0
1 2 47 0
1 2 64 0
1 3 7 0
1 3 15 0
1 3 35 0
1 3 38 0
1 4 27 0
1 4 57 0
1 4 60 0
1 4 61 0
1 5 46 0
1 6 19 0
1 7 36 0
1 7 56 0
1 7 69 0
1 8 30 0
1 8 35 0
1 8 39 0
1 8 47 0
1 8 59 0
1 8 60 0
1 9 14 0
1 9 17 0
1 9 39 0
1 9 72 0
1 10 22 0
1 10 23 0
1 10 42 0
1 10 64 0
1 11 38 0
1 11 44 0
1 11 48 0
1 11 54 0
1 11 71 0
1 11 75 0
1 12 17 0
1 12 26 0
1 12 29 0
1 12 73 0
1 12 74 0
1 13 26 0
1 13 54 0
1 13 68 0
1 14 51 0
1 14 52 0
1 14 65 0
1 15 23 0
1 15 37 0
1 15 42 0
1 15 58 0
1 16 23 0
1 16 36 0
1 16 46 0
1 16 48 0
1 16 73 0
1 17 24 0
1 17 25 0
1 17 72 0
1 18 25 0
1 18 37 0
1 18 41 0
1 18 62 0
1 18 63 0
1 19 40 0
1 19 57 0
1 19 61 0
1 19 62 0
1 20 34 0
1 20 41 0
1 20 62 0
1 21 34 0
1 21 54 0
1 22 24 0
1 23 55 0
1 23 68 0
1 24 27 0
1 24 35 0
1 24 67 0
1 25 28 0
1 26 29 0
1 26 47 0
1 26 57 0
1 26 70 0
1 27 51 0
1 27 55 0
1 27 64 0
1 27 73 0
1 28 34 0
1 28 37 0
1 29 34 0
1 29 74 0
1 30 56 0
1 30 69 0
1 31 34 0
1 31 35 0
1 31 38 0
1 31 40 0
1 31 68 0
1 32 33 0
1 32 44 0
1 32 46 0
1 32 63 0
1 32 65 0
1 32 72 0
1 33 40 0
1 33 52 0
1 33 74 0
1 34 70 0
1 35 55 0
1 36 37 0
1 36 49 0
1 37 51 0
1 38 43 0
1 38 70 0
1 40 44 0
1 40 57 0
1 41 49 0
1 42 49 0
1 42 53 0
1 43 45 0
1 43 49 0
1 45 64 0
1 46 67 0
1 46 74 0
1 47 56 0
1 50 65 0
1 51 56 0
1 52 67 0
1 52 72 0
1 53 57 0
1 53 62 0
1 53 72 0
1 54 58 0
1 56 69 0
1 57 71 0
1 62 66 0
1 63 67 0
1 69 71 0
1 70 74 0
